problems/csplib-prob015/SchursLemma-models/noch/O2/lingeling/model_1_3-6-17-solution000001.solution
language Essence 1.3

letting boxes be partition({1, 11, 13}, {2, 5, 6, 9, 16}, {3, 4, 8, 10, 15}, {7}, {12, 14}, {17})
